LatticeConstant 1.0 Ang
%block LatticeVectors
 4.22788301 0.00000000 0.00000000
 0.00000000 4.22788309 0.00000000
 0.00000000 0.00000000 4.22788301
%endblock LatticeVectors

NumberOfAtoms 8
AtomicCoordinatesFormat Ang
%block AtomicCoordinatesAndAtomicSpecies
 0.00000000 0.00000000 0.00000000 1 # 1: Mg
 0.00000000 2.11394154 2.11394151 1 # 2: Mg
 2.11394150 0.00000000 2.11394151 1 # 3: Mg
 2.11394150 2.11394154 0.00000000 1 # 4: Mg
 2.11394150 0.00000000 0.00000000 2 # 5: O
 2.11394150 2.11394154 2.11394151 2 # 6: O
 0.00000000 0.00000000 2.11394151 2 # 7: O
 0.00000000 2.11394154 0.00000000 2 # 8: O
%endblock AtomicCoordinatesAndAtomicSpecies

NumberOfSpecies 2
%block ChemicalSpeciesLabel
 1 12 Mg
 2 8 O
%endblock ChemicalSpeciesLabel
