NumberOfSpecies 3
%block ChemicalSpeciesLabel
 1 12 Mg
 2 8 O
 3 8 O_i
%endblock ChemicalSpeciesLabel
LatticeConstant 1.0 Ang
%block LatticeVectors
 8.45576602 0.00000000 0.00000000
 0.00000000 8.45576617 0.00000000
 0.00000000 0.00000000 8.45576603
%endblock LatticeVectors

NumberOfAtoms 65
AtomicCoordinatesFormat Ang
%block AtomicCoordinatesAndAtomicSpecies
 0.00000000 0.00000000 0.00000000 1 #  1: Mg
 0.00000000 2.11394154 2.11394151 1 #  2: Mg
 2.11394150 0.00000000 2.11394151 1 #  3: Mg
 2.11394150 2.11394154 0.00000000 1 #  4: Mg
 2.11394150 0.00000000 0.00000000 2 #  5: O
 2.11394150 2.11394154 2.11394151 2 #  6: O
 0.00000000 0.00000000 2.11394151 2 #  7: O
 0.00000000 2.11394154 0.00000000 2 #  8: O
 4.22788301 0.00000000 0.00000000 1 #  9: Mg
 4.22788301 2.11394154 2.11394151 1 # 10: Mg
 6.34182451 0.00000000 2.11394151 1 # 11: Mg
 6.34182451 2.11394154 0.00000000 1 # 12: Mg
 6.34182451 0.00000000 0.00000000 2 # 13: O
 6.34182451 2.11394154 2.11394151 2 # 14: O
 4.22788301 0.00000000 2.11394151 2 # 15: O
 4.22788301 2.11394154 0.00000000 2 # 16: O
 0.00000000 4.22788309 0.00000000 1 # 17: Mg
 0.00000000 6.34182463 2.11394151 1 # 18: Mg
 2.11394150 4.22788309 2.11394151 1 # 19: Mg
 2.11394150 6.34182463 0.00000000 1 # 20: Mg
 2.11394150 4.22788309 0.00000000 2 # 21: O
 2.11394150 6.34182463 2.11394151 2 # 22: O
 0.00000000 4.22788309 2.11394151 2 # 23: O
 0.00000000 6.34182463 0.00000000 2 # 24: O
 4.22788301 4.22788309 0.00000000 1 # 25: Mg
 4.22788301 6.34182463 2.11394151 1 # 26: Mg
 6.34182451 4.22788309 2.11394151 1 # 27: Mg
 6.34182451 6.34182463 0.00000000 1 # 28: Mg
 6.34182451 4.22788309 0.00000000 2 # 29: O
 6.34182451 6.34182463 2.11394151 2 # 30: O
 4.22788301 4.22788309 2.11394151 2 # 31: O
 4.22788301 6.34182463 0.00000000 2 # 32: O
 0.00000000 0.00000000 4.22788301 1 # 33: Mg
 0.00000000 2.11394154 6.34182452 1 # 34: Mg
 2.11394150 0.00000000 6.34182452 1 # 35: Mg
 2.11394150 2.11394154 4.22788301 1 # 36: Mg
 2.11394150 0.00000000 4.22788301 2 # 37: O
 2.11394150 2.11394154 6.34182452 2 # 38: O
 0.00000000 0.00000000 6.34182452 2 # 39: O
 0.00000000 2.11394154 4.22788301 2 # 40: O
 4.22788301 0.00000000 4.22788301 1 # 41: Mg
 4.22788301 2.11394154 6.34182452 1 # 42: Mg
 6.34182451 0.00000000 6.34182452 1 # 43: Mg
 6.34182451 2.11394154 4.22788301 1 # 44: Mg
 6.34182451 0.00000000 4.22788301 2 # 45: O
 6.34182451 2.11394154 6.34182452 2 # 46: O
 4.22788301 0.00000000 6.34182452 2 # 47: O
 4.22788301 2.11394154 4.22788301 2 # 48: O
 0.00000000 4.22788309 4.22788301 1 # 49: Mg
 0.00000000 6.34182463 6.34182452 1 # 50: Mg
 2.11394150 4.22788309 6.34182452 1 # 51: Mg
 2.11394150 6.34182463 4.22788301 1 # 52: Mg
 2.11394150 4.22788309 4.22788301 2 # 53: O
 2.11394150 6.34182463 6.34182452 2 # 54: O
 0.00000000 4.22788309 6.34182452 2 # 55: O
 0.00000000 6.34182463 4.22788301 2 # 56: O
 4.22788301 4.22788309 4.22788301 1 # 57: Mg
 4.22788301 6.34182463 6.34182452 1 # 58: Mg
 6.34182451 4.22788309 6.34182452 1 # 59: Mg
 6.34182451 6.34182463 4.22788301 1 # 60: Mg
 6.34182451 4.22788309 4.22788301 2 # 61: O
 6.34182451 6.34182463 6.34182452 2 # 62: O
 4.22788301 4.22788309 6.34182452 2 # 63: O
 4.22788301 6.34182463 4.22788301 2 # 64: O
 1.05697075 1.05697075 1.05697075 3 # 65: O_i
%endblock AtomicCoordinatesAndAtomicSpecies


