LatticeConstant 1.0 Ang
%block LatticeVectors
 9.96782100 0.00000000 0.00000000
 -4.98390900 8.63238600 0.00000000
 0.00000000 0.00000000 35.00000000
%endblock LatticeVectors

NumberOfAtoms 19
AtomicCoordinatesFormat Ang
%block AtomicCoordinatesAndAtomicSpecies
  1.66130367  0.95915400 17.50000000 1 #  1: Mg
  4.98391167  6.71407800 17.50000000 1 #  2: Mg
  3.32260833  7.67323200 17.50000000 2 #  3: O
  1.66130466  6.71407800 17.50000000 1 #  4: Mg
  0.00000133  7.67323200 17.50000000 2 #  5: O
 -1.66130234  6.71407800 17.50000000 1 #  6: Mg
 -3.32260567  7.67323200 17.50000000 2 #  7: O
  6.64521467  3.83661600 17.50000000 1 #  8: Mg
  4.98391134  4.79577000 17.50000000 2 #  9: O
  3.32260766  3.83661600 17.50000000 1 # 10: Mg
  1.66130433  4.79577000 17.50000000 2 # 11: O
  0.00000067  3.83661600 17.50000000 1 # 12: Mg
 -1.66130267  4.79577000 17.50000000 2 # 13: O
  8.30651767  0.95915400 17.50000000 1 # 14: Mg
  6.64521434  1.91830800 17.50000000 2 # 15: O
  4.98391066  0.95915400 17.50000000 1 # 16: Mg
  0.00000033  1.91830800 17.50000000 2 # 17: O
  0.00000033  1.91830800 17.50000000 3 # 18: V_O_ghost
  3.32260733  1.91830800 17.50000000 3 # 19: V_O_ghost
%endblock AtomicCoordinatesAndAtomicSpecies

NumberOfSpecies 3
%block ChemicalSpeciesLabel
 1 12 Mg
 2 8 O
 3 -8 V_O_ghost
%endblock ChemicalSpeciesLabel
