NumberOfSpecies 4
%block ChemicalSpeciesLabel
 1 12 Mg
 2 8 O
 3 -8 O_ghost
 4 1 H
%endblock ChemicalSpeciesLabel
LatticeConstant 1.0 Ang
%block LatticeVectors
 9.96782100 0.00000000 0.00000000
 -4.98390900 8.63238600 0.00000000
 0.00000000 0.00000000 35.00000000
%endblock LatticeVectors

NumberOfAtoms 18
AtomicCoordinatesFormat Ang
%block AtomicCoordinatesAndAtomicSpecies
  1.66130367  0.95915400 17.50000000 1 #  1: Mg
  0.00000033  1.91830800 17.50000000 4 #  2: O
  4.98391167  6.71407800 17.50000000 1 #  3: Mg
  3.32260833  7.67323200 17.50000000 3 #  4: O_ghost
  1.66130466  6.71407800 17.50000000 1 #  5: Mg
  0.00000133  7.67323200 17.50000000 2 #  6: O
 -1.66130234  6.71407800 17.50000000 1 #  7: Mg
 -3.32260567  7.67323200 17.50000000 2 #  8: O
  6.64521467  3.83661600 17.50000000 1 #  9: Mg
  4.98391134  4.79577000 17.50000000 2 # 10: O
  3.32260766  3.83661600 17.50000000 1 # 11: Mg
  1.66130433  4.79577000 17.50000000 2 # 12: O
  0.00000067  3.83661600 17.50000000 1 # 13: Mg
 -1.66130267  4.79577000 17.50000000 2 # 14: O
  8.30651767  0.95915400 17.50000000 1 # 15: Mg
  6.64521434  1.91830800 17.50000000 2 # 16: O
  4.98391066  0.95915400 17.50000000 1 # 17: Mg
  3.32260733  1.91830800 17.50000000 4 # 18: O
%endblock AtomicCoordinatesAndAtomicSpecies


